p ds 270 411
1 2
1 117
1 181
1 162
2 3
2 159
2 160
3 34
3 82
4 5
4 34
4 161
5 67
5 10
5 28
6 7
6 131
6 178
6 179
7 97
7 47
8 31
8 226
8 123
9 44
9 38
9 41
9 77
10 221
10 16
11 65
11 232
11 45
11 155
12 64
12 55
12 231
13 143
13 45
13 46
14 235
14 29
14 78
14 79
15 16
15 20
15 21
16 22
16 27
17 18
17 23
17 24
18 140
18 147
19 139
19 222
19 20
19 22
20 22
20 23
21 24
21 27
22 221
23 26
24 25
24 147
25 143
25 144
26 139
26 53
27 28
28 122
29 59
29 235
30 236
30 32
31 225
31 124
32 73
33 54
33 55
34 35
35 241
36 254
36 37
37 151
38 39
38 135
39 217
39 184
40 44
40 41
40 198
40 200
41 225
41 216
42 43
42 50
42 121
43 144
43 52
43 120
44 197
44 80
45 119
46 244
46 125
47 243
47 245
47 131
48 49
48 118
48 217
49 191
49 215
50 142
50 51
51 74
51 52
52 145
53 136
53 140
54 238
55 248
56 125
56 143
56 245
56 128
57 58
57 128
57 122
58 84
58 161
59 60
59 187
60 61
60 182
61 62
61 90
61 94
62 63
62 89
63 241
63 95
64 65
64 231
64 232
65 242
66 154
66 231
67 68
67 95
68 149
68 85
69 70
69 71
69 123
70 71
70 189
71 219
72 73
72 240
72 234
73 224
73 165
74 141
74 146
75 230
75 153
75 76
75 183
76 112
76 113
77 83
77 80
77 164
78 188
78 79
79 87
79 247
80 197
81 82
82 159
83 213
84 129
85 86
86 92
86 94
87 104
88 89
88 90
88 91
89 90
91 92
91 93
92 93
93 95
94 149
96 105
96 106
96 265
96 199
97 153
98 99
98 107
98 258
99 106
99 263
100 101
100 105
100 199
101 102
102 261
103 268
103 116
104 262
106 107
106 266
107 268
108 209
108 109
108 173
109 207
109 195
110 155
110 119
110 120
111 239
111 112
111 114
111 248
112 249
113 114
113 230
115 237
116 269
116 153
117 118
117 178
117 180
118 181
118 185
119 143
120 121
121 156
122 143
123 188
123 124
124 191
124 187
126 209
126 163
126 172
127 184
127 218
127 172
128 143
128 129
129 246
130 246
130 131
130 162
132 259
132 179
133 134
133 256
133 220
134 252
135 163
135 164
136 137
136 236
137 138
137 139
138 223
140 141
141 142
143 144
144 145
145 146
146 147
148 270
148 183
149 150
149 250
150 151
150 253
151 229
152 228
152 257
154 232
155 232
155 156
157 186
157 181
157 158
158 159
158 186
160 246
160 161
160 162
163 164
164 212
165 220
165 166
165 234
166 224
166 167
167 250
167 251
168 260
168 264
168 169
169 170
169 173
169 174
170 218
170 209
170 171
171 172
173 237
174 218
174 264
174 175
175 176
175 179
175 180
176 177
177 178
180 218
180 185
181 182
182 191
184 185
186 241
187 188
188 189
189 190
190 219
190 262
192 206
192 193
193 204
193 194
194 214
194 208
195 196
195 237
196 206
197 198
198 201
199 263
200 201
200 226
202 233
202 203
202 211
203 205
204 214
204 205
205 227
206 207
207 208
208 209
209 210
210 233
210 211
211 212
212 213
214 227
215 225
215 216
216 217
221 222
222 223
223 224
225 226
227 233
228 229
228 247
229 256
229 235
231 232
236 240
237 260
238 239
238 248
242 243
242 249
243 244
244 245
245 246
247 257
248 249
250 251
251 252
252 253
253 254
254 255
255 256
257 262
258 259
258 268
259 264
260 261
263 264
265 266
265 270
267 268
267 269
269 270
